--------------------------------------------------
s SATISFIABLE
benchmarks_SAT/INST_16x16/100/inst16x16_100_0.cnf : 41 ms.
--------------------------------------------------
s SATISFIABLE
benchmarks_SAT/INST_16x16/100/inst16x16_100_10.cnf : 32 ms.
--------------------------------------------------
s SATISFIABLE
benchmarks_SAT/INST_16x16/100/inst16x16_100_11.cnf : 30 ms.
--------------------------------------------------
s SATISFIABLE
benchmarks_SAT/INST_16x16/100/inst16x16_100_12.cnf : 29 ms.
--------------------------------------------------
s SATISFIABLE
benchmarks_SAT/INST_16x16/100/inst16x16_100_13.cnf : 32 ms.
--------------------------------------------------
s SATISFIABLE
benchmarks_SAT/INST_16x16/100/inst16x16_100_14.cnf : 30 ms.
--------------------------------------------------
s SATISFIABLE
benchmarks_SAT/INST_16x16/100/inst16x16_100_15.cnf : 33 ms.
--------------------------------------------------
s SATISFIABLE
benchmarks_SAT/INST_16x16/100/inst16x16_100_16.cnf : 28 ms.
--------------------------------------------------
s SATISFIABLE
benchmarks_SAT/INST_16x16/100/inst16x16_100_17.cnf : 32 ms.
--------------------------------------------------
s SATISFIABLE
benchmarks_SAT/INST_16x16/100/inst16x16_100_18.cnf : 32 ms.
--------------------------------------------------
s SATISFIABLE
benchmarks_SAT/INST_16x16/100/inst16x16_100_19.cnf : 33 ms.
--------------------------------------------------
s SATISFIABLE
benchmarks_SAT/INST_16x16/100/inst16x16_100_1.cnf : 34 ms.
--------------------------------------------------
s SATISFIABLE
benchmarks_SAT/INST_16x16/100/inst16x16_100_20.cnf : 25 ms.
--------------------------------------------------
s SATISFIABLE
benchmarks_SAT/INST_16x16/100/inst16x16_100_21.cnf : 25 ms.
--------------------------------------------------
s SATISFIABLE
benchmarks_SAT/INST_16x16/100/inst16x16_100_22.cnf : 26 ms.
--------------------------------------------------
s SATISFIABLE
benchmarks_SAT/INST_16x16/100/inst16x16_100_23.cnf : 25 ms.
--------------------------------------------------
s SATISFIABLE
benchmarks_SAT/INST_16x16/100/inst16x16_100_24.cnf : 25 ms.
--------------------------------------------------
s SATISFIABLE
benchmarks_SAT/INST_16x16/100/inst16x16_100_25.cnf : 25 ms.
--------------------------------------------------
s SATISFIABLE
benchmarks_SAT/INST_16x16/100/inst16x16_100_26.cnf : 26 ms.
--------------------------------------------------
s SATISFIABLE
benchmarks_SAT/INST_16x16/100/inst16x16_100_27.cnf : 25 ms.
--------------------------------------------------
s SATISFIABLE
benchmarks_SAT/INST_16x16/100/inst16x16_100_28.cnf : 25 ms.
--------------------------------------------------
s SATISFIABLE
benchmarks_SAT/INST_16x16/100/inst16x16_100_29.cnf : 26 ms.
--------------------------------------------------
s SATISFIABLE
benchmarks_SAT/INST_16x16/100/inst16x16_100_2.cnf : 28 ms.
--------------------------------------------------
s SATISFIABLE
benchmarks_SAT/INST_16x16/100/inst16x16_100_30.cnf : 29 ms.
--------------------------------------------------
s SATISFIABLE
benchmarks_SAT/INST_16x16/100/inst16x16_100_31.cnf : 24 ms.
--------------------------------------------------
s SATISFIABLE
benchmarks_SAT/INST_16x16/100/inst16x16_100_32.cnf : 30 ms.
--------------------------------------------------
s SATISFIABLE
benchmarks_SAT/INST_16x16/100/inst16x16_100_33.cnf : 25 ms.
--------------------------------------------------
s SATISFIABLE
benchmarks_SAT/INST_16x16/100/inst16x16_100_34.cnf : 26 ms.
--------------------------------------------------
s SATISFIABLE
benchmarks_SAT/INST_16x16/100/inst16x16_100_35.cnf : 26 ms.
--------------------------------------------------
s SATISFIABLE
benchmarks_SAT/INST_16x16/100/inst16x16_100_36.cnf : 27 ms.
--------------------------------------------------
s SATISFIABLE
benchmarks_SAT/INST_16x16/100/inst16x16_100_37.cnf : 26 ms.
--------------------------------------------------
s SATISFIABLE
benchmarks_SAT/INST_16x16/100/inst16x16_100_38.cnf : 29 ms.
--------------------------------------------------
s SATISFIABLE
benchmarks_SAT/INST_16x16/100/inst16x16_100_39.cnf : 30 ms.
--------------------------------------------------
s SATISFIABLE
benchmarks_SAT/INST_16x16/100/inst16x16_100_3.cnf : 26 ms.
--------------------------------------------------
s SATISFIABLE
benchmarks_SAT/INST_16x16/100/inst16x16_100_40.cnf : 25 ms.
--------------------------------------------------
s SATISFIABLE
benchmarks_SAT/INST_16x16/100/inst16x16_100_41.cnf : 26 ms.
--------------------------------------------------
s SATISFIABLE
benchmarks_SAT/INST_16x16/100/inst16x16_100_42.cnf : 26 ms.
--------------------------------------------------
s SATISFIABLE
benchmarks_SAT/INST_16x16/100/inst16x16_100_43.cnf : 25 ms.
--------------------------------------------------
s SATISFIABLE
benchmarks_SAT/INST_16x16/100/inst16x16_100_44.cnf : 25 ms.
--------------------------------------------------
s SATISFIABLE
benchmarks_SAT/INST_16x16/100/inst16x16_100_45.cnf : 25 ms.
--------------------------------------------------
s SATISFIABLE
benchmarks_SAT/INST_16x16/100/inst16x16_100_46.cnf : 27 ms.
--------------------------------------------------
s SATISFIABLE
benchmarks_SAT/INST_16x16/100/inst16x16_100_47.cnf : 26 ms.
--------------------------------------------------
s SATISFIABLE
benchmarks_SAT/INST_16x16/100/inst16x16_100_48.cnf : 25 ms.
--------------------------------------------------
s SATISFIABLE
benchmarks_SAT/INST_16x16/100/inst16x16_100_49.cnf : 26 ms.
--------------------------------------------------
s SATISFIABLE
benchmarks_SAT/INST_16x16/100/inst16x16_100_4.cnf : 26 ms.
--------------------------------------------------
s SATISFIABLE
benchmarks_SAT/INST_16x16/100/inst16x16_100_50.cnf : 26 ms.
--------------------------------------------------
s SATISFIABLE
benchmarks_SAT/INST_16x16/100/inst16x16_100_51.cnf : 24 ms.
--------------------------------------------------
s SATISFIABLE
benchmarks_SAT/INST_16x16/100/inst16x16_100_52.cnf : 30 ms.
--------------------------------------------------
s SATISFIABLE
benchmarks_SAT/INST_16x16/100/inst16x16_100_53.cnf : 32 ms.
--------------------------------------------------
s SATISFIABLE
benchmarks_SAT/INST_16x16/100/inst16x16_100_54.cnf : 34 ms.
--------------------------------------------------
s SATISFIABLE
benchmarks_SAT/INST_16x16/100/inst16x16_100_55.cnf : 32 ms.
--------------------------------------------------
s SATISFIABLE
benchmarks_SAT/INST_16x16/100/inst16x16_100_56.cnf : 26 ms.
--------------------------------------------------
s SATISFIABLE
benchmarks_SAT/INST_16x16/100/inst16x16_100_57.cnf : 33 ms.
--------------------------------------------------
s SATISFIABLE
benchmarks_SAT/INST_16x16/100/inst16x16_100_58.cnf : 33 ms.
--------------------------------------------------
s SATISFIABLE
benchmarks_SAT/INST_16x16/100/inst16x16_100_59.cnf : 27 ms.
--------------------------------------------------
s SATISFIABLE
benchmarks_SAT/INST_16x16/100/inst16x16_100_5.cnf : 26 ms.
--------------------------------------------------
s SATISFIABLE
benchmarks_SAT/INST_16x16/100/inst16x16_100_60.cnf : 28 ms.
--------------------------------------------------
s SATISFIABLE
benchmarks_SAT/INST_16x16/100/inst16x16_100_61.cnf : 32 ms.
--------------------------------------------------
s SATISFIABLE
benchmarks_SAT/INST_16x16/100/inst16x16_100_62.cnf : 27 ms.
--------------------------------------------------
s SATISFIABLE
benchmarks_SAT/INST_16x16/100/inst16x16_100_63.cnf : 26 ms.
--------------------------------------------------
s SATISFIABLE
benchmarks_SAT/INST_16x16/100/inst16x16_100_64.cnf : 34 ms.
--------------------------------------------------
s SATISFIABLE
benchmarks_SAT/INST_16x16/100/inst16x16_100_65.cnf : 32 ms.
--------------------------------------------------
s SATISFIABLE
benchmarks_SAT/INST_16x16/100/inst16x16_100_66.cnf : 25 ms.
--------------------------------------------------
s SATISFIABLE
benchmarks_SAT/INST_16x16/100/inst16x16_100_67.cnf : 32 ms.
--------------------------------------------------
s SATISFIABLE
benchmarks_SAT/INST_16x16/100/inst16x16_100_68.cnf : 29 ms.
--------------------------------------------------
s SATISFIABLE
benchmarks_SAT/INST_16x16/100/inst16x16_100_69.cnf : 32 ms.
--------------------------------------------------
s SATISFIABLE
benchmarks_SAT/INST_16x16/100/inst16x16_100_6.cnf : 33 ms.
--------------------------------------------------
s SATISFIABLE
benchmarks_SAT/INST_16x16/100/inst16x16_100_70.cnf : 33 ms.
--------------------------------------------------
s SATISFIABLE
benchmarks_SAT/INST_16x16/100/inst16x16_100_71.cnf : 33 ms.
--------------------------------------------------
s SATISFIABLE
benchmarks_SAT/INST_16x16/100/inst16x16_100_72.cnf : 26 ms.
--------------------------------------------------
s SATISFIABLE
benchmarks_SAT/INST_16x16/100/inst16x16_100_73.cnf : 26 ms.
--------------------------------------------------
s SATISFIABLE
benchmarks_SAT/INST_16x16/100/inst16x16_100_74.cnf : 33 ms.
--------------------------------------------------
s SATISFIABLE
benchmarks_SAT/INST_16x16/100/inst16x16_100_75.cnf : 34 ms.
--------------------------------------------------
s SATISFIABLE
benchmarks_SAT/INST_16x16/100/inst16x16_100_76.cnf : 27 ms.
--------------------------------------------------
s SATISFIABLE
benchmarks_SAT/INST_16x16/100/inst16x16_100_77.cnf : 27 ms.
--------------------------------------------------
s SATISFIABLE
benchmarks_SAT/INST_16x16/100/inst16x16_100_78.cnf : 26 ms.
--------------------------------------------------
s SATISFIABLE
benchmarks_SAT/INST_16x16/100/inst16x16_100_79.cnf : 27 ms.
--------------------------------------------------
s SATISFIABLE
benchmarks_SAT/INST_16x16/100/inst16x16_100_7.cnf : 29 ms.
--------------------------------------------------
s SATISFIABLE
benchmarks_SAT/INST_16x16/100/inst16x16_100_80.cnf : 27 ms.
--------------------------------------------------
s SATISFIABLE
benchmarks_SAT/INST_16x16/100/inst16x16_100_81.cnf : 33 ms.
--------------------------------------------------
s SATISFIABLE
benchmarks_SAT/INST_16x16/100/inst16x16_100_82.cnf : 33 ms.
--------------------------------------------------
s SATISFIABLE
benchmarks_SAT/INST_16x16/100/inst16x16_100_83.cnf : 26 ms.
--------------------------------------------------
s SATISFIABLE
benchmarks_SAT/INST_16x16/100/inst16x16_100_84.cnf : 33 ms.
--------------------------------------------------
s SATISFIABLE
benchmarks_SAT/INST_16x16/100/inst16x16_100_85.cnf : 29 ms.
--------------------------------------------------
s SATISFIABLE
benchmarks_SAT/INST_16x16/100/inst16x16_100_86.cnf : 29 ms.
--------------------------------------------------
s SATISFIABLE
benchmarks_SAT/INST_16x16/100/inst16x16_100_87.cnf : 26 ms.
--------------------------------------------------
s SATISFIABLE
benchmarks_SAT/INST_16x16/100/inst16x16_100_88.cnf : 32 ms.
--------------------------------------------------
s SATISFIABLE
benchmarks_SAT/INST_16x16/100/inst16x16_100_89.cnf : 26 ms.
--------------------------------------------------
s SATISFIABLE
benchmarks_SAT/INST_16x16/100/inst16x16_100_8.cnf : 27 ms.
--------------------------------------------------
s SATISFIABLE
benchmarks_SAT/INST_16x16/100/inst16x16_100_90.cnf : 26 ms.
--------------------------------------------------
s SATISFIABLE
benchmarks_SAT/INST_16x16/100/inst16x16_100_91.cnf : 30 ms.
--------------------------------------------------
s SATISFIABLE
benchmarks_SAT/INST_16x16/100/inst16x16_100_92.cnf : 26 ms.
--------------------------------------------------
s SATISFIABLE
benchmarks_SAT/INST_16x16/100/inst16x16_100_93.cnf : 29 ms.
--------------------------------------------------
s SATISFIABLE
benchmarks_SAT/INST_16x16/100/inst16x16_100_94.cnf : 26 ms.
--------------------------------------------------
s SATISFIABLE
benchmarks_SAT/INST_16x16/100/inst16x16_100_95.cnf : 26 ms.
--------------------------------------------------
s SATISFIABLE
benchmarks_SAT/INST_16x16/100/inst16x16_100_96.cnf : 33 ms.
--------------------------------------------------
s SATISFIABLE
benchmarks_SAT/INST_16x16/100/inst16x16_100_97.cnf : 27 ms.
--------------------------------------------------
s SATISFIABLE
benchmarks_SAT/INST_16x16/100/inst16x16_100_98.cnf : 26 ms.
--------------------------------------------------
s SATISFIABLE
benchmarks_SAT/INST_16x16/100/inst16x16_100_99.cnf : 26 ms.
--------------------------------------------------
s SATISFIABLE
benchmarks_SAT/INST_16x16/100/inst16x16_100_9.cnf : 25 ms.
